; benchmark generated from python API
(set-info :status unknown)
(declare-fun cell_1_2 () Int)
(declare-fun cell_1_6 () Int)
(declare-fun cell_2_1 () Int)
(declare-fun cell_2_6 () Int)
(declare-fun cell_3_8 () Int)
(declare-fun cell_3_9 () Int)
(declare-fun cell_4_4 () Int)
(declare-fun cell_4_9 () Int)
(declare-fun cell_5_3 () Int)
(declare-fun cell_5_5 () Int)
(declare-fun cell_6_3 () Int)
(declare-fun cell_6_8 () Int)
(declare-fun cell_7_5 () Int)
(declare-fun cell_8_7 () Int)
(declare-fun cell_9_1 () Int)
(declare-fun cell_1_1 () Int)
(declare-fun cell_3_1 () Int)
(declare-fun cell_4_1 () Int)
(declare-fun cell_5_1 () Int)
(declare-fun cell_6_1 () Int)
(declare-fun cell_7_1 () Int)
(declare-fun cell_8_1 () Int)
(declare-fun cell_2_2 () Int)
(declare-fun cell_3_2 () Int)
(declare-fun cell_4_2 () Int)
(declare-fun cell_5_2 () Int)
(declare-fun cell_6_2 () Int)
(declare-fun cell_7_2 () Int)
(declare-fun cell_8_2 () Int)
(declare-fun cell_9_2 () Int)
(declare-fun cell_1_3 () Int)
(declare-fun cell_2_3 () Int)
(declare-fun cell_3_3 () Int)
(declare-fun cell_4_3 () Int)
(declare-fun cell_7_3 () Int)
(declare-fun cell_8_3 () Int)
(declare-fun cell_9_3 () Int)
(declare-fun cell_1_4 () Int)
(declare-fun cell_2_4 () Int)
(declare-fun cell_3_4 () Int)
(declare-fun cell_5_4 () Int)
(declare-fun cell_6_4 () Int)
(declare-fun cell_7_4 () Int)
(declare-fun cell_8_4 () Int)
(declare-fun cell_9_4 () Int)
(declare-fun cell_1_5 () Int)
(declare-fun cell_2_5 () Int)
(declare-fun cell_3_5 () Int)
(declare-fun cell_4_5 () Int)
(declare-fun cell_6_5 () Int)
(declare-fun cell_8_5 () Int)
(declare-fun cell_9_5 () Int)
(declare-fun cell_3_6 () Int)
(declare-fun cell_4_6 () Int)
(declare-fun cell_5_6 () Int)
(declare-fun cell_6_6 () Int)
(declare-fun cell_7_6 () Int)
(declare-fun cell_8_6 () Int)
(declare-fun cell_9_6 () Int)
(declare-fun cell_1_7 () Int)
(declare-fun cell_2_7 () Int)
(declare-fun cell_3_7 () Int)
(declare-fun cell_4_7 () Int)
(declare-fun cell_5_7 () Int)
(declare-fun cell_6_7 () Int)
(declare-fun cell_7_7 () Int)
(declare-fun cell_9_7 () Int)
(declare-fun cell_1_8 () Int)
(declare-fun cell_2_8 () Int)
(declare-fun cell_4_8 () Int)
(declare-fun cell_5_8 () Int)
(declare-fun cell_7_8 () Int)
(declare-fun cell_8_8 () Int)
(declare-fun cell_9_8 () Int)
(declare-fun cell_1_9 () Int)
(declare-fun cell_2_9 () Int)
(declare-fun cell_5_9 () Int)
(declare-fun cell_6_9 () Int)
(declare-fun cell_7_9 () Int)
(declare-fun cell_8_9 () Int)
(declare-fun cell_9_9 () Int)
(assert
 (= cell_1_2 1))
(assert
 (= cell_1_6 2))
(assert
 (= cell_2_1 2))
(assert
 (= cell_2_6 1))
(assert
 (= cell_3_8 2))
(assert
 (= cell_3_9 1))
(assert
 (= cell_4_4 1))
(assert
 (= cell_4_9 2))
(assert
 (= cell_5_3 1))
(assert
 (= cell_5_5 2))
(assert
 (= cell_6_3 2))
(assert
 (= cell_6_8 1))
(assert
 (= cell_7_5 1))
(assert
 (= cell_8_7 1))
(assert
 (= cell_9_1 1))
(assert
 (let (($x1228 (= cell_1_1 9)))
 (let (($x3339 (= cell_1_1 8)))
 (let (($x2784 (= cell_1_1 7)))
 (let (($x1888 (= cell_1_1 6)))
 (let (($x2553 (= cell_1_1 5)))
 (let (($x3902 (= cell_1_1 4)))
 (let (($x2487 (= cell_1_1 3)))
 (let (($x3568 (= cell_1_1 2)))
 (let (($x3608 (= cell_1_1 1)))
 (or $x3608 $x3568 $x2487 $x3902 $x2553 $x1888 $x2784 $x3339 $x1228)))))))))))
(assert
 (let (($x3368 (= cell_2_1 2)))
 (or (= cell_2_1 1) $x3368 (= cell_2_1 3) (= cell_2_1 4) (= cell_2_1 5) (= cell_2_1 6) (= cell_2_1 7) (= cell_2_1 8) (= cell_2_1 9))))
(assert
 (let (($x411 (= cell_3_1 9)))
 (let (($x2677 (= cell_3_1 8)))
 (let (($x3837 (= cell_3_1 7)))
 (let (($x1308 (= cell_3_1 6)))
 (let (($x3194 (= cell_3_1 5)))
 (let (($x2697 (= cell_3_1 4)))
 (let (($x2047 (= cell_3_1 3)))
 (let (($x1664 (= cell_3_1 2)))
 (let (($x867 (= cell_3_1 1)))
 (or $x867 $x1664 $x2047 $x2697 $x3194 $x1308 $x3837 $x2677 $x411)))))))))))
(assert
 (let (($x863 (= cell_4_1 9)))
 (let (($x2181 (= cell_4_1 8)))
 (let (($x1951 (= cell_4_1 7)))
 (let (($x1833 (= cell_4_1 6)))
 (let (($x82 (= cell_4_1 5)))
 (let (($x2817 (= cell_4_1 4)))
 (let (($x1138 (= cell_4_1 3)))
 (let (($x3540 (= cell_4_1 2)))
 (let (($x1586 (= cell_4_1 1)))
 (or $x1586 $x3540 $x1138 $x2817 $x82 $x1833 $x1951 $x2181 $x863)))))))))))
(assert
 (let (($x414 (= cell_5_1 9)))
 (let (($x2053 (= cell_5_1 8)))
 (let (($x2835 (= cell_5_1 7)))
 (let (($x2816 (= cell_5_1 6)))
 (let (($x1354 (= cell_5_1 5)))
 (let (($x3618 (= cell_5_1 4)))
 (let (($x1238 (= cell_5_1 3)))
 (let (($x1803 (= cell_5_1 2)))
 (let (($x1598 (= cell_5_1 1)))
 (or $x1598 $x1803 $x1238 $x3618 $x1354 $x2816 $x2835 $x2053 $x414)))))))))))
(assert
 (let (($x652 (= cell_6_1 9)))
 (let (($x1633 (= cell_6_1 8)))
 (let (($x4076 (= cell_6_1 7)))
 (let (($x2151 (= cell_6_1 6)))
 (let (($x7875 (= cell_6_1 5)))
 (let (($x813 (= cell_6_1 4)))
 (let (($x482 (= cell_6_1 3)))
 (let (($x647 (= cell_6_1 2)))
 (let (($x2189 (= cell_6_1 1)))
 (or $x2189 $x647 $x482 $x813 $x7875 $x2151 $x4076 $x1633 $x652)))))))))))
(assert
 (let (($x101 (= cell_7_1 9)))
 (let (($x2827 (= cell_7_1 8)))
 (let (($x990 (= cell_7_1 7)))
 (let (($x4211 (= cell_7_1 6)))
 (let (($x1549 (= cell_7_1 5)))
 (let (($x2010 (= cell_7_1 4)))
 (let (($x936 (= cell_7_1 3)))
 (let (($x948 (= cell_7_1 2)))
 (let (($x3338 (= cell_7_1 1)))
 (or $x3338 $x948 $x936 $x2010 $x1549 $x4211 $x990 $x2827 $x101)))))))))))
(assert
 (let (($x3715 (= cell_8_1 9)))
 (let (($x1754 (= cell_8_1 8)))
 (let (($x503 (= cell_8_1 7)))
 (let (($x2774 (= cell_8_1 6)))
 (let (($x2791 (= cell_8_1 5)))
 (let (($x2580 (= cell_8_1 4)))
 (let (($x3563 (= cell_8_1 3)))
 (let (($x2813 (= cell_8_1 2)))
 (let (($x2410 (= cell_8_1 1)))
 (or $x2410 $x2813 $x3563 $x2580 $x2791 $x2774 $x503 $x1754 $x3715)))))))))))
(assert
 (let (($x3624 (= cell_9_1 1)))
 (or $x3624 (= cell_9_1 2) (= cell_9_1 3) (= cell_9_1 4) (= cell_9_1 5) (= cell_9_1 6) (= cell_9_1 7) (= cell_9_1 8) (= cell_9_1 9))))
(assert
 (let (($x3278 (= cell_1_2 1)))
 (or $x3278 (= cell_1_2 2) (= cell_1_2 3) (= cell_1_2 4) (= cell_1_2 5) (= cell_1_2 6) (= cell_1_2 7) (= cell_1_2 8) (= cell_1_2 9))))
(assert
 (let (($x4243 (= cell_2_2 9)))
 (let (($x1993 (= cell_2_2 8)))
 (let (($x1534 (= cell_2_2 7)))
 (let (($x4141 (= cell_2_2 6)))
 (let (($x901 (= cell_2_2 5)))
 (let (($x4125 (= cell_2_2 4)))
 (let (($x3858 (= cell_2_2 3)))
 (let (($x2264 (= cell_2_2 2)))
 (let (($x311 (= cell_2_2 1)))
 (or $x311 $x2264 $x3858 $x4125 $x901 $x4141 $x1534 $x1993 $x4243)))))))))))
(assert
 (let (($x3039 (= cell_3_2 9)))
 (let (($x1849 (= cell_3_2 8)))
 (let (($x2878 (= cell_3_2 7)))
 (let (($x1380 (= cell_3_2 6)))
 (let (($x822 (= cell_3_2 5)))
 (let (($x1143 (= cell_3_2 4)))
 (let (($x2065 (= cell_3_2 3)))
 (let (($x1027 (= cell_3_2 2)))
 (let (($x418 (= cell_3_2 1)))
 (or $x418 $x1027 $x2065 $x1143 $x822 $x1380 $x2878 $x1849 $x3039)))))))))))
(assert
 (let (($x7670 (= cell_4_2 9)))
 (let (($x3004 (= cell_4_2 8)))
 (let (($x2348 (= cell_4_2 7)))
 (let (($x2648 (= cell_4_2 6)))
 (let (($x11 (= cell_4_2 5)))
 (let (($x965 (= cell_4_2 4)))
 (let (($x1506 (= cell_4_2 3)))
 (let (($x3400 (= cell_4_2 2)))
 (let (($x206 (= cell_4_2 1)))
 (or $x206 $x3400 $x1506 $x965 $x11 $x2648 $x2348 $x3004 $x7670)))))))))))
(assert
 (let (($x1378 (= cell_5_2 9)))
 (let (($x2604 (= cell_5_2 8)))
 (let (($x654 (= cell_5_2 7)))
 (let (($x1904 (= cell_5_2 6)))
 (let (($x7963 (= cell_5_2 5)))
 (let (($x1056 (= cell_5_2 4)))
 (let (($x1052 (= cell_5_2 3)))
 (let (($x2305 (= cell_5_2 2)))
 (let (($x249 (= cell_5_2 1)))
 (or $x249 $x2305 $x1052 $x1056 $x7963 $x1904 $x654 $x2604 $x1378)))))))))))
(assert
 (let (($x714 (= cell_6_2 9)))
 (let (($x4083 (= cell_6_2 8)))
 (let (($x7822 (= cell_6_2 7)))
 (let (($x7853 (= cell_6_2 6)))
 (let (($x1985 (= cell_6_2 5)))
 (let (($x8009 (= cell_6_2 4)))
 (let (($x3394 (= cell_6_2 3)))
 (let (($x3263 (= cell_6_2 2)))
 (let (($x961 (= cell_6_2 1)))
 (or $x961 $x3263 $x3394 $x8009 $x1985 $x7853 $x7822 $x4083 $x714)))))))))))
(assert
 (let (($x4072 (= cell_7_2 9)))
 (let (($x143 (= cell_7_2 8)))
 (let (($x2282 (= cell_7_2 7)))
 (let (($x2541 (= cell_7_2 6)))
 (let (($x792 (= cell_7_2 5)))
 (let (($x1322 (= cell_7_2 4)))
 (let (($x3682 (= cell_7_2 3)))
 (let (($x3169 (= cell_7_2 2)))
 (let (($x4175 (= cell_7_2 1)))
 (or $x4175 $x3169 $x3682 $x1322 $x792 $x2541 $x2282 $x143 $x4072)))))))))))
(assert
 (let (($x799 (= cell_8_2 9)))
 (let (($x791 (= cell_8_2 8)))
 (let (($x1114 (= cell_8_2 7)))
 (let (($x210 (= cell_8_2 6)))
 (let (($x2856 (= cell_8_2 5)))
 (let (($x303 (= cell_8_2 4)))
 (let (($x1602 (= cell_8_2 3)))
 (let (($x3678 (= cell_8_2 2)))
 (let (($x2829 (= cell_8_2 1)))
 (or $x2829 $x3678 $x1602 $x303 $x2856 $x210 $x1114 $x791 $x799)))))))))))
(assert
 (let (($x1931 (= cell_9_2 2)))
 (let (($x3611 (= cell_9_2 1)))
 (or $x3611 $x1931 (= cell_9_2 3) (= cell_9_2 4) (= cell_9_2 5) (= cell_9_2 6) (= cell_9_2 7) (= cell_9_2 8) (= cell_9_2 9)))))
(assert
 (let (($x1096 (= cell_1_3 9)))
 (let (($x7843 (= cell_1_3 8)))
 (let (($x4022 (= cell_1_3 7)))
 (let (($x3378 (= cell_1_3 6)))
 (let (($x648 (= cell_1_3 5)))
 (let (($x1661 (= cell_1_3 4)))
 (let (($x4163 (= cell_1_3 3)))
 (let (($x973 (= cell_1_3 2)))
 (let (($x1399 (= cell_1_3 1)))
 (or $x1399 $x973 $x4163 $x1661 $x648 $x3378 $x4022 $x7843 $x1096)))))))))))
(assert
 (let (($x1297 (= cell_2_3 9)))
 (let (($x83 (= cell_2_3 8)))
 (let (($x1448 (= cell_2_3 7)))
 (let (($x2254 (= cell_2_3 6)))
 (let (($x267 (= cell_2_3 5)))
 (let (($x2046 (= cell_2_3 4)))
 (let (($x48 (= cell_2_3 3)))
 (let (($x2094 (= cell_2_3 2)))
 (let (($x87 (= cell_2_3 1)))
 (or $x87 $x2094 $x48 $x2046 $x267 $x2254 $x1448 $x83 $x1297)))))))))))
(assert
 (let (($x1427 (= cell_3_3 9)))
 (let (($x1057 (= cell_3_3 8)))
 (let (($x2680 (= cell_3_3 7)))
 (let (($x630 (= cell_3_3 6)))
 (let (($x2243 (= cell_3_3 5)))
 (let (($x1087 (= cell_3_3 4)))
 (let (($x1130 (= cell_3_3 3)))
 (let (($x435 (= cell_3_3 2)))
 (let (($x3573 (= cell_3_3 1)))
 (or $x3573 $x435 $x1130 $x1087 $x2243 $x630 $x2680 $x1057 $x1427)))))))))))
(assert
 (let (($x1497 (= cell_4_3 9)))
 (let (($x4228 (= cell_4_3 8)))
 (let (($x2419 (= cell_4_3 7)))
 (let (($x3887 (= cell_4_3 6)))
 (let (($x3257 (= cell_4_3 5)))
 (let (($x1048 (= cell_4_3 4)))
 (let (($x993 (= cell_4_3 3)))
 (let (($x3412 (= cell_4_3 2)))
 (let (($x484 (= cell_4_3 1)))
 (or $x484 $x3412 $x993 $x1048 $x3257 $x3887 $x2419 $x4228 $x1497)))))))))))
(assert
 (let (($x2163 (= cell_5_3 1)))
 (or $x2163 (= cell_5_3 2) (= cell_5_3 3) (= cell_5_3 4) (= cell_5_3 5) (= cell_5_3 6) (= cell_5_3 7) (= cell_5_3 8) (= cell_5_3 9))))
(assert
 (let (($x2884 (= cell_6_3 2)))
 (or (= cell_6_3 1) $x2884 (= cell_6_3 3) (= cell_6_3 4) (= cell_6_3 5) (= cell_6_3 6) (= cell_6_3 7) (= cell_6_3 8) (= cell_6_3 9))))
(assert
 (let (($x1292 (= cell_7_3 9)))
 (let (($x2860 (= cell_7_3 8)))
 (let (($x1982 (= cell_7_3 7)))
 (let (($x611 (= cell_7_3 6)))
 (let (($x7789 (= cell_7_3 5)))
 (let (($x1291 (= cell_7_3 4)))
 (let (($x3105 (= cell_7_3 3)))
 (let (($x1848 (= cell_7_3 2)))
 (let (($x4198 (= cell_7_3 1)))
 (or $x4198 $x1848 $x3105 $x1291 $x7789 $x611 $x1982 $x2860 $x1292)))))))))))
(assert
 (let (($x668 (= cell_8_3 9)))
 (let (($x2041 (= cell_8_3 8)))
 (let (($x2645 (= cell_8_3 7)))
 (let (($x1711 (= cell_8_3 6)))
 (let (($x621 (= cell_8_3 5)))
 (let (($x3055 (= cell_8_3 4)))
 (let (($x2958 (= cell_8_3 3)))
 (let (($x2892 (= cell_8_3 2)))
 (let (($x2259 (= cell_8_3 1)))
 (or $x2259 $x2892 $x2958 $x3055 $x621 $x1711 $x2645 $x2041 $x668)))))))))))
(assert
 (let (($x3852 (= cell_9_3 2)))
 (let (($x1028 (= cell_9_3 1)))
 (or $x1028 $x3852 (= cell_9_3 3) (= cell_9_3 4) (= cell_9_3 5) (= cell_9_3 6) (= cell_9_3 7) (= cell_9_3 8) (= cell_9_3 9)))))
(assert
 (let (($x2147 (= cell_1_4 9)))
 (let (($x8008 (= cell_1_4 8)))
 (let (($x1382 (= cell_1_4 7)))
 (let (($x1418 (= cell_1_4 6)))
 (let (($x903 (= cell_1_4 5)))
 (let (($x1176 (= cell_1_4 4)))
 (let (($x3124 (= cell_1_4 3)))
 (let (($x700 (= cell_1_4 2)))
 (let (($x3138 (= cell_1_4 1)))
 (or $x3138 $x700 $x3124 $x1176 $x903 $x1418 $x1382 $x8008 $x2147)))))))))))
(assert
 (let (($x581 (= cell_2_4 9)))
 (let (($x3045 (= cell_2_4 8)))
 (let (($x2512 (= cell_2_4 7)))
 (let (($x3787 (= cell_2_4 6)))
 (let (($x2289 (= cell_2_4 5)))
 (let (($x1398 (= cell_2_4 4)))
 (let (($x2805 (= cell_2_4 3)))
 (let (($x836 (= cell_2_4 2)))
 (let (($x7649 (= cell_2_4 1)))
 (or $x7649 $x836 $x2805 $x1398 $x2289 $x3787 $x2512 $x3045 $x581)))))))))))
(assert
 (let (($x3832 (= cell_3_4 9)))
 (let (($x561 (= cell_3_4 8)))
 (let (($x1017 (= cell_3_4 7)))
 (let (($x2210 (= cell_3_4 6)))
 (let (($x366 (= cell_3_4 5)))
 (let (($x1898 (= cell_3_4 4)))
 (let (($x1107 (= cell_3_4 3)))
 (let (($x2249 (= cell_3_4 2)))
 (let (($x1059 (= cell_3_4 1)))
 (or $x1059 $x2249 $x1107 $x1898 $x366 $x2210 $x1017 $x561 $x3832)))))))))))
(assert
 (let (($x992 (= cell_4_4 1)))
 (or $x992 (= cell_4_4 2) (= cell_4_4 3) (= cell_4_4 4) (= cell_4_4 5) (= cell_4_4 6) (= cell_4_4 7) (= cell_4_4 8) (= cell_4_4 9))))
(assert
 (let (($x2455 (= cell_5_4 9)))
 (let (($x3207 (= cell_5_4 8)))
 (let (($x893 (= cell_5_4 7)))
 (let (($x513 (= cell_5_4 6)))
 (let (($x492 (= cell_5_4 5)))
 (let (($x1733 (= cell_5_4 4)))
 (let (($x3242 (= cell_5_4 3)))
 (let (($x1765 (= cell_5_4 2)))
 (let (($x1558 (= cell_5_4 1)))
 (or $x1558 $x1765 $x3242 $x1733 $x492 $x513 $x893 $x3207 $x2455)))))))))))
(assert
 (let (($x576 (= cell_6_4 9)))
 (let (($x2005 (= cell_6_4 8)))
 (let (($x2352 (= cell_6_4 7)))
 (let (($x2736 (= cell_6_4 6)))
 (let (($x2315 (= cell_6_4 5)))
 (let (($x2131 (= cell_6_4 4)))
 (let (($x3727 (= cell_6_4 3)))
 (let (($x7798 (= cell_6_4 2)))
 (let (($x1564 (= cell_6_4 1)))
 (or $x1564 $x7798 $x3727 $x2131 $x2315 $x2736 $x2352 $x2005 $x576)))))))))))
(assert
 (let (($x396 (= cell_7_4 9)))
 (let (($x2336 (= cell_7_4 8)))
 (let (($x2569 (= cell_7_4 7)))
 (let (($x865 (= cell_7_4 6)))
 (let (($x2762 (= cell_7_4 5)))
 (let (($x983 (= cell_7_4 4)))
 (let (($x8026 (= cell_7_4 3)))
 (let (($x2319 (= cell_7_4 2)))
 (let (($x1154 (= cell_7_4 1)))
 (or $x1154 $x2319 $x8026 $x983 $x2762 $x865 $x2569 $x2336 $x396)))))))))))
(assert
 (let (($x1158 (= cell_8_4 9)))
 (let (($x7685 (= cell_8_4 8)))
 (let (($x3084 (= cell_8_4 7)))
 (let (($x1283 (= cell_8_4 6)))
 (let (($x1832 (= cell_8_4 5)))
 (let (($x1001 (= cell_8_4 4)))
 (let (($x1076 (= cell_8_4 3)))
 (let (($x2794 (= cell_8_4 2)))
 (let (($x1596 (= cell_8_4 1)))
 (or $x1596 $x2794 $x1076 $x1001 $x1832 $x1283 $x3084 $x7685 $x1158)))))))))))
(assert
 (let (($x2915 (= cell_9_4 1)))
 (or $x2915 (= cell_9_4 2) (= cell_9_4 3) (= cell_9_4 4) (= cell_9_4 5) (= cell_9_4 6) (= cell_9_4 7) (= cell_9_4 8) (= cell_9_4 9))))
(assert
 (let (($x2106 (= cell_1_5 9)))
 (let (($x812 (= cell_1_5 8)))
 (let (($x2676 (= cell_1_5 7)))
 (let (($x2891 (= cell_1_5 6)))
 (let (($x59 (= cell_1_5 5)))
 (let (($x1968 (= cell_1_5 4)))
 (let (($x929 (= cell_1_5 3)))
 (let (($x2355 (= cell_1_5 2)))
 (let (($x3996 (= cell_1_5 1)))
 (or $x3996 $x2355 $x929 $x1968 $x59 $x2891 $x2676 $x812 $x2106)))))))))))
(assert
 (let (($x2349 (= cell_2_5 9)))
 (let (($x1489 (= cell_2_5 8)))
 (let (($x739 (= cell_2_5 7)))
 (let (($x2108 (= cell_2_5 6)))
 (let (($x1807 (= cell_2_5 5)))
 (let (($x1747 (= cell_2_5 4)))
 (let (($x2204 (= cell_2_5 3)))
 (let (($x7748 (= cell_2_5 2)))
 (let (($x428 (= cell_2_5 1)))
 (or $x428 $x7748 $x2204 $x1747 $x1807 $x2108 $x739 $x1489 $x2349)))))))))))
(assert
 (let (($x640 (= cell_3_5 9)))
 (let (($x1089 (= cell_3_5 8)))
 (let (($x2616 (= cell_3_5 7)))
 (let (($x1703 (= cell_3_5 6)))
 (let (($x3287 (= cell_3_5 5)))
 (let (($x1167 (= cell_3_5 4)))
 (let (($x3044 (= cell_3_5 3)))
 (let (($x7838 (= cell_3_5 2)))
 (let (($x4035 (= cell_3_5 1)))
 (or $x4035 $x7838 $x3044 $x1167 $x3287 $x1703 $x2616 $x1089 $x640)))))))))))
(assert
 (let (($x2391 (= cell_4_5 9)))
 (let (($x373 (= cell_4_5 8)))
 (let (($x3071 (= cell_4_5 7)))
 (let (($x1232 (= cell_4_5 6)))
 (let (($x3014 (= cell_4_5 5)))
 (let (($x2928 (= cell_4_5 4)))
 (let (($x2695 (= cell_4_5 3)))
 (let (($x742 (= cell_4_5 2)))
 (let (($x564 (= cell_4_5 1)))
 (or $x564 $x742 $x2695 $x2928 $x3014 $x1232 $x3071 $x373 $x2391)))))))))))
(assert
 (let (($x1461 (= cell_5_5 2)))
 (or (= cell_5_5 1) $x1461 (= cell_5_5 3) (= cell_5_5 4) (= cell_5_5 5) (= cell_5_5 6) (= cell_5_5 7) (= cell_5_5 8) (= cell_5_5 9))))
(assert
 (let (($x191 (= cell_6_5 9)))
 (let (($x1216 (= cell_6_5 8)))
 (let (($x1760 (= cell_6_5 7)))
 (let (($x1101 (= cell_6_5 6)))
 (let (($x1120 (= cell_6_5 5)))
 (let (($x1669 (= cell_6_5 4)))
 (let (($x1197 (= cell_6_5 3)))
 (let (($x1133 (= cell_6_5 2)))
 (let (($x123 (= cell_6_5 1)))
 (or $x123 $x1133 $x1197 $x1669 $x1120 $x1101 $x1760 $x1216 $x191)))))))))))
(assert
 (let (($x2461 (= cell_7_5 1)))
 (or $x2461 (= cell_7_5 2) (= cell_7_5 3) (= cell_7_5 4) (= cell_7_5 5) (= cell_7_5 6) (= cell_7_5 7) (= cell_7_5 8) (= cell_7_5 9))))
(assert
 (let (($x1487 (= cell_8_5 9)))
 (let (($x1473 (= cell_8_5 8)))
 (let (($x1670 (= cell_8_5 7)))
 (let (($x2593 (= cell_8_5 6)))
 (let (($x2938 (= cell_8_5 5)))
 (let (($x2397 (= cell_8_5 4)))
 (let (($x937 (= cell_8_5 3)))
 (let (($x1795 (= cell_8_5 2)))
 (let (($x662 (= cell_8_5 1)))
 (or $x662 $x1795 $x937 $x2397 $x2938 $x2593 $x1670 $x1473 $x1487)))))))))))
(assert
 (let (($x201 (= cell_9_5 2)))
 (let (($x7809 (= cell_9_5 1)))
 (or $x7809 $x201 (= cell_9_5 3) (= cell_9_5 4) (= cell_9_5 5) (= cell_9_5 6) (= cell_9_5 7) (= cell_9_5 8) (= cell_9_5 9)))))
(assert
 (let (($x175 (= cell_1_6 2)))
 (or (= cell_1_6 1) $x175 (= cell_1_6 3) (= cell_1_6 4) (= cell_1_6 5) (= cell_1_6 6) (= cell_1_6 7) (= cell_1_6 8) (= cell_1_6 9))))
(assert
 (let (($x2497 (= cell_2_6 1)))
 (or $x2497 (= cell_2_6 2) (= cell_2_6 3) (= cell_2_6 4) (= cell_2_6 5) (= cell_2_6 6) (= cell_2_6 7) (= cell_2_6 8) (= cell_2_6 9))))
(assert
 (let (($x7872 (= cell_3_6 9)))
 (let (($x2692 (= cell_3_6 8)))
 (let (($x604 (= cell_3_6 7)))
 (let (($x2776 (= cell_3_6 6)))
 (let (($x395 (= cell_3_6 5)))
 (let (($x3518 (= cell_3_6 4)))
 (let (($x3667 (= cell_3_6 3)))
 (let (($x1831 (= cell_3_6 2)))
 (let (($x125 (= cell_3_6 1)))
 (or $x125 $x1831 $x3667 $x3518 $x395 $x2776 $x604 $x2692 $x7872)))))))))))
(assert
 (let (($x1456 (= cell_4_6 9)))
 (let (($x2666 (= cell_4_6 8)))
 (let (($x7631 (= cell_4_6 7)))
 (let (($x3336 (= cell_4_6 6)))
 (let (($x2493 (= cell_4_6 5)))
 (let (($x1726 (= cell_4_6 4)))
 (let (($x1141 (= cell_4_6 3)))
 (let (($x393 (= cell_4_6 2)))
 (let (($x3062 (= cell_4_6 1)))
 (or $x3062 $x393 $x1141 $x1726 $x2493 $x3336 $x7631 $x2666 $x1456)))))))))))
(assert
 (let (($x1729 (= cell_5_6 2)))
 (let (($x339 (= cell_5_6 1)))
 (or $x339 $x1729 (= cell_5_6 3) (= cell_5_6 4) (= cell_5_6 5) (= cell_5_6 6) (= cell_5_6 7) (= cell_5_6 8) (= cell_5_6 9)))))
(assert
 (let (($x1079 (= cell_6_6 9)))
 (let (($x3631 (= cell_6_6 8)))
 (let (($x2689 (= cell_6_6 7)))
 (let (($x2414 (= cell_6_6 6)))
 (let (($x182 (= cell_6_6 5)))
 (let (($x2726 (= cell_6_6 4)))
 (let (($x51 (= cell_6_6 3)))
 (let (($x3406 (= cell_6_6 2)))
 (let (($x2576 (= cell_6_6 1)))
 (or $x2576 $x3406 $x51 $x2726 $x182 $x2414 $x2689 $x3631 $x1079)))))))))))
(assert
 (let (($x135 (= cell_7_6 9)))
 (let (($x2417 (= cell_7_6 8)))
 (let (($x2734 (= cell_7_6 7)))
 (let (($x2344 (= cell_7_6 6)))
 (let (($x573 (= cell_7_6 5)))
 (let (($x641 (= cell_7_6 4)))
 (let (($x3254 (= cell_7_6 3)))
 (let (($x3089 (= cell_7_6 2)))
 (let (($x1132 (= cell_7_6 1)))
 (or $x1132 $x3089 $x3254 $x641 $x573 $x2344 $x2734 $x2417 $x135)))))))))))
(assert
 (let (($x3395 (= cell_8_6 9)))
 (let (($x3865 (= cell_8_6 8)))
 (let (($x1526 (= cell_8_6 7)))
 (let (($x2849 (= cell_8_6 6)))
 (let (($x3685 (= cell_8_6 5)))
 (let (($x789 (= cell_8_6 4)))
 (let (($x1490 (= cell_8_6 3)))
 (let (($x2710 (= cell_8_6 2)))
 (let (($x2475 (= cell_8_6 1)))
 (or $x2475 $x2710 $x1490 $x789 $x3685 $x2849 $x1526 $x3865 $x3395)))))))))))
(assert
 (let (($x1025 (= cell_9_6 2)))
 (let (($x1327 (= cell_9_6 1)))
 (or $x1327 $x1025 (= cell_9_6 3) (= cell_9_6 4) (= cell_9_6 5) (= cell_9_6 6) (= cell_9_6 7) (= cell_9_6 8) (= cell_9_6 9)))))
(assert
 (let (($x3031 (= cell_1_7 9)))
 (let (($x237 (= cell_1_7 8)))
 (let (($x2292 (= cell_1_7 7)))
 (let (($x3299 (= cell_1_7 6)))
 (let (($x294 (= cell_1_7 5)))
 (let (($x313 (= cell_1_7 4)))
 (let (($x1576 (= cell_1_7 3)))
 (let (($x1963 (= cell_1_7 2)))
 (let (($x1455 (= cell_1_7 1)))
 (or $x1455 $x1963 $x1576 $x313 $x294 $x3299 $x2292 $x237 $x3031)))))))))))
(assert
 (let (($x1041 (= cell_2_7 9)))
 (let (($x703 (= cell_2_7 8)))
 (let (($x7786 (= cell_2_7 7)))
 (let (($x3354 (= cell_2_7 6)))
 (let (($x987 (= cell_2_7 5)))
 (let (($x8015 (= cell_2_7 4)))
 (let (($x1837 (= cell_2_7 3)))
 (let (($x2129 (= cell_2_7 2)))
 (let (($x2263 (= cell_2_7 1)))
 (or $x2263 $x2129 $x1837 $x8015 $x987 $x3354 $x7786 $x703 $x1041)))))))))))
(assert
 (let (($x2321 (= cell_3_7 9)))
 (let (($x95 (= cell_3_7 8)))
 (let (($x802 (= cell_3_7 7)))
 (let (($x955 (= cell_3_7 6)))
 (let (($x1820 (= cell_3_7 5)))
 (let (($x1043 (= cell_3_7 4)))
 (let (($x340 (= cell_3_7 3)))
 (let (($x2872 (= cell_3_7 2)))
 (let (($x4052 (= cell_3_7 1)))
 (or $x4052 $x2872 $x340 $x1043 $x1820 $x955 $x802 $x95 $x2321)))))))))))
(assert
 (let (($x434 (= cell_4_7 9)))
 (let (($x1392 (= cell_4_7 8)))
 (let (($x3789 (= cell_4_7 7)))
 (let (($x2038 (= cell_4_7 6)))
 (let (($x520 (= cell_4_7 5)))
 (let (($x3143 (= cell_4_7 4)))
 (let (($x2653 (= cell_4_7 3)))
 (let (($x2584 (= cell_4_7 2)))
 (let (($x1255 (= cell_4_7 1)))
 (or $x1255 $x2584 $x2653 $x3143 $x520 $x2038 $x3789 $x1392 $x434)))))))))))
(assert
 (let (($x2901 (= cell_5_7 9)))
 (let (($x3822 (= cell_5_7 8)))
 (let (($x3466 (= cell_5_7 7)))
 (let (($x828 (= cell_5_7 6)))
 (let (($x2093 (= cell_5_7 5)))
 (let (($x7989 (= cell_5_7 4)))
 (let (($x3376 (= cell_5_7 3)))
 (let (($x2993 (= cell_5_7 2)))
 (let (($x657 (= cell_5_7 1)))
 (or $x657 $x2993 $x3376 $x7989 $x2093 $x828 $x3466 $x3822 $x2901)))))))))))
(assert
 (let (($x1873 (= cell_6_7 9)))
 (let (($x778 (= cell_6_7 8)))
 (let (($x1753 (= cell_6_7 7)))
 (let (($x3235 (= cell_6_7 6)))
 (let (($x54 (= cell_6_7 5)))
 (let (($x678 (= cell_6_7 4)))
 (let (($x227 (= cell_6_7 3)))
 (let (($x2847 (= cell_6_7 2)))
 (let (($x1503 (= cell_6_7 1)))
 (or $x1503 $x2847 $x227 $x678 $x54 $x3235 $x1753 $x778 $x1873)))))))))))
(assert
 (let (($x2476 (= cell_7_7 9)))
 (let (($x1688 (= cell_7_7 8)))
 (let (($x2436 (= cell_7_7 7)))
 (let (($x1591 (= cell_7_7 6)))
 (let (($x198 (= cell_7_7 5)))
 (let (($x315 (= cell_7_7 4)))
 (let (($x3029 (= cell_7_7 3)))
 (let (($x3501 (= cell_7_7 2)))
 (let (($x3091 (= cell_7_7 1)))
 (or $x3091 $x3501 $x3029 $x315 $x198 $x1591 $x2436 $x1688 $x2476)))))))))))
(assert
 (let (($x579 (= cell_8_7 1)))
 (or $x579 (= cell_8_7 2) (= cell_8_7 3) (= cell_8_7 4) (= cell_8_7 5) (= cell_8_7 6) (= cell_8_7 7) (= cell_8_7 8) (= cell_8_7 9))))
(assert
 (let (($x3523 (= cell_9_7 1)))
 (or $x3523 (= cell_9_7 2) (= cell_9_7 3) (= cell_9_7 4) (= cell_9_7 5) (= cell_9_7 6) (= cell_9_7 7) (= cell_9_7 8) (= cell_9_7 9))))
(assert
 (let (($x2533 (= cell_1_8 9)))
 (let (($x2864 (= cell_1_8 8)))
 (let (($x746 (= cell_1_8 7)))
 (let (($x2772 (= cell_1_8 6)))
 (let (($x2066 (= cell_1_8 5)))
 (let (($x2221 (= cell_1_8 4)))
 (let (($x3157 (= cell_1_8 3)))
 (let (($x7791 (= cell_1_8 2)))
 (let (($x274 (= cell_1_8 1)))
 (or $x274 $x7791 $x3157 $x2221 $x2066 $x2772 $x746 $x2864 $x2533)))))))))))
(assert
 (let (($x798 (= cell_2_8 9)))
 (let (($x1039 (= cell_2_8 8)))
 (let (($x7673 (= cell_2_8 7)))
 (let (($x1364 (= cell_2_8 6)))
 (let (($x2715 (= cell_2_8 5)))
 (let (($x1145 (= cell_2_8 4)))
 (let (($x1804 (= cell_2_8 3)))
 (let (($x832 (= cell_2_8 2)))
 (let (($x473 (= cell_2_8 1)))
 (or $x473 $x832 $x1804 $x1145 $x2715 $x1364 $x7673 $x1039 $x798)))))))))))
(assert
 (let (($x1682 (= cell_3_8 2)))
 (or (= cell_3_8 1) $x1682 (= cell_3_8 3) (= cell_3_8 4) (= cell_3_8 5) (= cell_3_8 6) (= cell_3_8 7) (= cell_3_8 8) (= cell_3_8 9))))
(assert
 (let (($x2081 (= cell_4_8 9)))
 (let (($x2627 (= cell_4_8 8)))
 (let (($x3008 (= cell_4_8 7)))
 (let (($x1022 (= cell_4_8 6)))
 (let (($x508 (= cell_4_8 5)))
 (let (($x104 (= cell_4_8 4)))
 (let (($x3792 (= cell_4_8 3)))
 (let (($x659 (= cell_4_8 2)))
 (let (($x509 (= cell_4_8 1)))
 (or $x509 $x659 $x3792 $x104 $x508 $x1022 $x3008 $x2627 $x2081)))))))))))
(assert
 (let (($x2536 (= cell_5_8 9)))
 (let (($x1288 (= cell_5_8 8)))
 (let (($x89 (= cell_5_8 7)))
 (let (($x3448 (= cell_5_8 6)))
 (let (($x1969 (= cell_5_8 5)))
 (let (($x1977 (= cell_5_8 4)))
 (let (($x174 (= cell_5_8 3)))
 (let (($x284 (= cell_5_8 2)))
 (let (($x4190 (= cell_5_8 1)))
 (or $x4190 $x284 $x174 $x1977 $x1969 $x3448 $x89 $x1288 $x2536)))))))))))
(assert
 (let (($x3402 (= cell_6_8 1)))
 (or $x3402 (= cell_6_8 2) (= cell_6_8 3) (= cell_6_8 4) (= cell_6_8 5) (= cell_6_8 6) (= cell_6_8 7) (= cell_6_8 8) (= cell_6_8 9))))
(assert
 (let (($x2632 (= cell_7_8 9)))
 (let (($x3224 (= cell_7_8 8)))
 (let (($x3142 (= cell_7_8 7)))
 (let (($x3341 (= cell_7_8 6)))
 (let (($x763 (= cell_7_8 5)))
 (let (($x102 (= cell_7_8 4)))
 (let (($x3630 (= cell_7_8 3)))
 (let (($x823 (= cell_7_8 2)))
 (let (($x2226 (= cell_7_8 1)))
 (or $x2226 $x823 $x3630 $x102 $x763 $x3341 $x3142 $x3224 $x2632)))))))))))
(assert
 (let (($x3691 (= cell_8_8 2)))
 (let (($x4134 (= cell_8_8 1)))
 (or $x4134 $x3691 (= cell_8_8 3) (= cell_8_8 4) (= cell_8_8 5) (= cell_8_8 6) (= cell_8_8 7) (= cell_8_8 8) (= cell_8_8 9)))))
(assert
 (let (($x3663 (= cell_9_8 2)))
 (let (($x35 (= cell_9_8 1)))
 (or $x35 $x3663 (= cell_9_8 3) (= cell_9_8 4) (= cell_9_8 5) (= cell_9_8 6) (= cell_9_8 7) (= cell_9_8 8) (= cell_9_8 9)))))
(assert
 (let (($x1073 (= cell_1_9 9)))
 (let (($x1654 (= cell_1_9 8)))
 (let (($x3413 (= cell_1_9 7)))
 (let (($x3146 (= cell_1_9 6)))
 (let (($x874 (= cell_1_9 5)))
 (let (($x1739 (= cell_1_9 4)))
 (let (($x633 (= cell_1_9 3)))
 (let (($x1871 (= cell_1_9 2)))
 (let (($x3702 (= cell_1_9 1)))
 (or $x3702 $x1871 $x633 $x1739 $x874 $x3146 $x3413 $x1654 $x1073)))))))))))
(assert
 (let (($x404 (= cell_2_9 9)))
 (let (($x2942 (= cell_2_9 8)))
 (let (($x1603 (= cell_2_9 7)))
 (let (($x1938 (= cell_2_9 6)))
 (let (($x2595 (= cell_2_9 5)))
 (let (($x1709 (= cell_2_9 4)))
 (let (($x883 (= cell_2_9 3)))
 (let (($x1876 (= cell_2_9 2)))
 (let (($x1116 (= cell_2_9 1)))
 (or $x1116 $x1876 $x883 $x1709 $x2595 $x1938 $x1603 $x2942 $x404)))))))))))
(assert
 (let (($x1219 (= cell_3_9 1)))
 (or $x1219 (= cell_3_9 2) (= cell_3_9 3) (= cell_3_9 4) (= cell_3_9 5) (= cell_3_9 6) (= cell_3_9 7) (= cell_3_9 8) (= cell_3_9 9))))
(assert
 (let (($x592 (= cell_4_9 2)))
 (or (= cell_4_9 1) $x592 (= cell_4_9 3) (= cell_4_9 4) (= cell_4_9 5) (= cell_4_9 6) (= cell_4_9 7) (= cell_4_9 8) (= cell_4_9 9))))
(assert
 (let (($x3449 (= cell_5_9 9)))
 (let (($x1524 (= cell_5_9 8)))
 (let (($x3041 (= cell_5_9 7)))
 (let (($x2542 (= cell_5_9 6)))
 (let (($x1426 (= cell_5_9 5)))
 (let (($x699 (= cell_5_9 4)))
 (let (($x1706 (= cell_5_9 3)))
 (let (($x4121 (= cell_5_9 2)))
 (let (($x389 (= cell_5_9 1)))
 (or $x389 $x4121 $x1706 $x699 $x1426 $x2542 $x3041 $x1524 $x3449)))))))))))
(assert
 (let (($x2600 (= cell_6_9 2)))
 (let (($x4009 (= cell_6_9 1)))
 (or $x4009 $x2600 (= cell_6_9 3) (= cell_6_9 4) (= cell_6_9 5) (= cell_6_9 6) (= cell_6_9 7) (= cell_6_9 8) (= cell_6_9 9)))))
(assert
 (let (($x3205 (= cell_7_9 9)))
 (let (($x3279 (= cell_7_9 8)))
 (let (($x2538 (= cell_7_9 7)))
 (let (($x1544 (= cell_7_9 6)))
 (let (($x949 (= cell_7_9 5)))
 (let (($x2028 (= cell_7_9 4)))
 (let (($x3916 (= cell_7_9 3)))
 (let (($x251 (= cell_7_9 2)))
 (let (($x1728 (= cell_7_9 1)))
 (or $x1728 $x251 $x3916 $x2028 $x949 $x1544 $x2538 $x3279 $x3205)))))))))))
(assert
 (let (($x2229 (= cell_8_9 2)))
 (let (($x8025 (= cell_8_9 1)))
 (or $x8025 $x2229 (= cell_8_9 3) (= cell_8_9 4) (= cell_8_9 5) (= cell_8_9 6) (= cell_8_9 7) (= cell_8_9 8) (= cell_8_9 9)))))
(assert
 (let (($x2068 (= cell_9_9 2)))
 (let (($x363 (= cell_9_9 1)))
 (or $x363 $x2068 (= cell_9_9 3) (= cell_9_9 4) (= cell_9_9 5) (= cell_9_9 6) (= cell_9_9 7) (= cell_9_9 8) (= cell_9_9 9)))))
(assert
 (and (distinct cell_1_1 cell_1_2 cell_1_3 cell_1_4 cell_1_5 cell_1_6 cell_1_7 cell_1_8 cell_1_9) true))
(assert
 (and (distinct cell_2_1 cell_2_2 cell_2_3 cell_2_4 cell_2_5 cell_2_6 cell_2_7 cell_2_8 cell_2_9) true))
(assert
 (and (distinct cell_3_1 cell_3_2 cell_3_3 cell_3_4 cell_3_5 cell_3_6 cell_3_7 cell_3_8 cell_3_9) true))
(assert
 (and (distinct cell_4_1 cell_4_2 cell_4_3 cell_4_4 cell_4_5 cell_4_6 cell_4_7 cell_4_8 cell_4_9) true))
(assert
 (and (distinct cell_5_1 cell_5_2 cell_5_3 cell_5_4 cell_5_5 cell_5_6 cell_5_7 cell_5_8 cell_5_9) true))
(assert
 (and (distinct cell_6_1 cell_6_2 cell_6_3 cell_6_4 cell_6_5 cell_6_6 cell_6_7 cell_6_8 cell_6_9) true))
(assert
 (and (distinct cell_7_1 cell_7_2 cell_7_3 cell_7_4 cell_7_5 cell_7_6 cell_7_7 cell_7_8 cell_7_9) true))
(assert
 (and (distinct cell_8_1 cell_8_2 cell_8_3 cell_8_4 cell_8_5 cell_8_6 cell_8_7 cell_8_8 cell_8_9) true))
(assert
 (and (distinct cell_9_1 cell_9_2 cell_9_3 cell_9_4 cell_9_5 cell_9_6 cell_9_7 cell_9_8 cell_9_9) true))
(assert
 (and (distinct cell_1_1 cell_2_1 cell_3_1 cell_4_1 cell_5_1 cell_6_1 cell_7_1 cell_8_1 cell_9_1) true))
(assert
 (and (distinct cell_1_2 cell_2_2 cell_3_2 cell_4_2 cell_5_2 cell_6_2 cell_7_2 cell_8_2 cell_9_2) true))
(assert
 (and (distinct cell_1_3 cell_2_3 cell_3_3 cell_4_3 cell_5_3 cell_6_3 cell_7_3 cell_8_3 cell_9_3) true))
(assert
 (and (distinct cell_1_4 cell_2_4 cell_3_4 cell_4_4 cell_5_4 cell_6_4 cell_7_4 cell_8_4 cell_9_4) true))
(assert
 (and (distinct cell_1_5 cell_2_5 cell_3_5 cell_4_5 cell_5_5 cell_6_5 cell_7_5 cell_8_5 cell_9_5) true))
(assert
 (and (distinct cell_1_6 cell_2_6 cell_3_6 cell_4_6 cell_5_6 cell_6_6 cell_7_6 cell_8_6 cell_9_6) true))
(assert
 (and (distinct cell_1_7 cell_2_7 cell_3_7 cell_4_7 cell_5_7 cell_6_7 cell_7_7 cell_8_7 cell_9_7) true))
(assert
 (and (distinct cell_1_8 cell_2_8 cell_3_8 cell_4_8 cell_5_8 cell_6_8 cell_7_8 cell_8_8 cell_9_8) true))
(assert
 (and (distinct cell_1_9 cell_2_9 cell_3_9 cell_4_9 cell_5_9 cell_6_9 cell_7_9 cell_8_9 cell_9_9) true))
(assert
 (and (distinct cell_1_1 cell_1_2 cell_1_3 cell_2_1 cell_2_2 cell_2_3 cell_3_1 cell_3_2 cell_3_3) true))
(assert
 (and (distinct cell_1_4 cell_1_5 cell_1_6 cell_2_4 cell_2_5 cell_2_6 cell_3_4 cell_3_5 cell_3_6) true))
(assert
 (and (distinct cell_1_7 cell_1_8 cell_1_9 cell_2_7 cell_2_8 cell_2_9 cell_3_7 cell_3_8 cell_3_9) true))
(assert
 (and (distinct cell_4_1 cell_4_2 cell_4_3 cell_5_1 cell_5_2 cell_5_3 cell_6_1 cell_6_2 cell_6_3) true))
(assert
 (and (distinct cell_4_4 cell_4_5 cell_4_6 cell_5_4 cell_5_5 cell_5_6 cell_6_4 cell_6_5 cell_6_6) true))
(assert
 (and (distinct cell_4_7 cell_4_8 cell_4_9 cell_5_7 cell_5_8 cell_5_9 cell_6_7 cell_6_8 cell_6_9) true))
(assert
 (and (distinct cell_7_1 cell_7_2 cell_7_3 cell_8_1 cell_8_2 cell_8_3 cell_9_1 cell_9_2 cell_9_3) true))
(assert
 (and (distinct cell_7_4 cell_7_5 cell_7_6 cell_8_4 cell_8_5 cell_8_6 cell_9_4 cell_9_5 cell_9_6) true))
(assert
 (and (distinct cell_7_7 cell_7_8 cell_7_9 cell_8_7 cell_8_8 cell_8_9 cell_9_7 cell_9_8 cell_9_9) true))
(assert
 (let (($x7634 (and (distinct cell_5_9 cell_6_8 cell_7_7 cell_8_6) true)))
 (let (($x7999 (and (distinct cell_2_9 cell_3_8 cell_4_7 cell_5_6 cell_6_5 cell_7_4 cell_8_3 cell_9_2) true)))
 (let (($x2685 (and (distinct cell_1_8 cell_2_7 cell_3_6 cell_4_5 cell_5_4 cell_6_3 cell_7_2 cell_8_1) true)))
 (let (($x2719 (and (distinct cell_1_5 cell_2_4 cell_3_3 cell_4_2) true)))
 (let (($x79 (and (distinct cell_5_1 cell_6_2 cell_7_3 cell_8_4) true)))
 (let (($x3723 (and (distinct cell_2_1 cell_3_2 cell_4_3 cell_5_4 cell_6_5 cell_7_6 cell_8_7 cell_9_8) true)))
 (let (($x3762 (and (distinct cell_1_2 cell_2_3 cell_3_4 cell_4_5 cell_5_6 cell_6_7 cell_7_8 cell_8_9) true)))
 (let (($x4212 (and (distinct cell_1_5 cell_2_6 cell_3_7 cell_4_8) true)))
 (and $x4212 $x3762 $x3723 $x79 $x2719 $x2685 $x7999 $x7634))))))))))
(assert
 (= cell_7_7 2))
(check-sat)
